124.0 161.0 195.0 185.0 91.0 
124.0 161.0 195.0 91.0 185.0 
124.0 161.0 185.0 195.0 91.0 
124.0 161.0 185.0 91.0 195.0 
124.0 161.0 91.0 185.0 195.0 
124.0 161.0 91.0 195.0 185.0 
124.0 195.0 161.0 185.0 91.0 
124.0 195.0 161.0 91.0 185.0 
124.0 195.0 185.0 161.0 91.0 
124.0 195.0 185.0 91.0 161.0 
124.0 195.0 91.0 185.0 161.0 
124.0 195.0 91.0 161.0 185.0 
124.0 185.0 195.0 161.0 91.0 
124.0 185.0 195.0 91.0 161.0 
124.0 185.0 161.0 195.0 91.0 
124.0 185.0 161.0 91.0 195.0 
124.0 185.0 91.0 161.0 195.0 
124.0 185.0 91.0 195.0 161.0 
124.0 91.0 195.0 185.0 161.0 
124.0 91.0 195.0 161.0 185.0 
124.0 91.0 185.0 195.0 161.0 
124.0 91.0 185.0 161.0 195.0 
124.0 91.0 161.0 185.0 195.0 
124.0 91.0 161.0 195.0 185.0 
161.0 124.0 195.0 185.0 91.0 
161.0 124.0 195.0 91.0 185.0 
161.0 124.0 185.0 195.0 91.0 
161.0 124.0 185.0 91.0 195.0 
161.0 124.0 91.0 185.0 195.0 
161.0 124.0 91.0 195.0 185.0 
161.0 195.0 124.0 185.0 91.0 
161.0 195.0 124.0 91.0 185.0 
161.0 195.0 185.0 124.0 91.0 
161.0 195.0 185.0 91.0 124.0 
161.0 195.0 91.0 185.0 124.0 
161.0 195.0 91.0 124.0 185.0 
161.0 185.0 195.0 124.0 91.0 
161.0 185.0 195.0 91.0 124.0 
161.0 185.0 124.0 195.0 91.0 
161.0 185.0 124.0 91.0 195.0 
161.0 185.0 91.0 124.0 195.0 
161.0 185.0 91.0 195.0 124.0 
161.0 91.0 195.0 185.0 124.0 
161.0 91.0 195.0 124.0 185.0 
161.0 91.0 185.0 195.0 124.0 
161.0 91.0 185.0 124.0 195.0 
161.0 91.0 124.0 185.0 195.0 
161.0 91.0 124.0 195.0 185.0 
195.0 161.0 124.0 185.0 91.0 
195.0 161.0 124.0 91.0 185.0 
195.0 161.0 185.0 124.0 91.0 
195.0 161.0 185.0 91.0 124.0 
195.0 161.0 91.0 185.0 124.0 
195.0 161.0 91.0 124.0 185.0 
195.0 124.0 161.0 185.0 91.0 
195.0 124.0 161.0 91.0 185.0 
195.0 124.0 185.0 161.0 91.0 
195.0 124.0 185.0 91.0 161.0 
195.0 124.0 91.0 185.0 161.0 
195.0 124.0 91.0 161.0 185.0 
195.0 185.0 124.0 161.0 91.0 
195.0 185.0 124.0 91.0 161.0 
195.0 185.0 161.0 124.0 91.0 
195.0 185.0 161.0 91.0 124.0 
195.0 185.0 91.0 161.0 124.0 
195.0 185.0 91.0 124.0 161.0 
195.0 91.0 124.0 185.0 161.0 
195.0 91.0 124.0 161.0 185.0 
195.0 91.0 185.0 124.0 161.0 
195.0 91.0 185.0 161.0 124.0 
195.0 91.0 161.0 185.0 124.0 
195.0 91.0 161.0 124.0 185.0 
185.0 161.0 195.0 124.0 91.0 
185.0 161.0 195.0 91.0 124.0 
185.0 161.0 124.0 195.0 91.0 
185.0 161.0 124.0 91.0 195.0 
185.0 161.0 91.0 124.0 195.0 
185.0 161.0 91.0 195.0 124.0 
185.0 195.0 161.0 124.0 91.0 
185.0 195.0 161.0 91.0 124.0 
185.0 195.0 124.0 161.0 91.0 
185.0 195.0 124.0 91.0 161.0 
185.0 195.0 91.0 124.0 161.0 
185.0 195.0 91.0 161.0 124.0 
185.0 124.0 195.0 161.0 91.0 
185.0 124.0 195.0 91.0 161.0 
185.0 124.0 161.0 195.0 91.0 
185.0 124.0 161.0 91.0 195.0 
185.0 124.0 91.0 161.0 195.0 
185.0 124.0 91.0 195.0 161.0 
185.0 91.0 195.0 124.0 161.0 
185.0 91.0 195.0 161.0 124.0 
185.0 91.0 124.0 195.0 161.0 
185.0 91.0 124.0 161.0 195.0 
185.0 91.0 161.0 124.0 195.0 
185.0 91.0 161.0 195.0 124.0 
91.0 161.0 195.0 185.0 124.0 
91.0 161.0 195.0 124.0 185.0 
91.0 161.0 185.0 195.0 124.0 
91.0 161.0 185.0 124.0 195.0 
91.0 161.0 124.0 185.0 195.0 
91.0 161.0 124.0 195.0 185.0 
91.0 195.0 161.0 185.0 124.0 
91.0 195.0 161.0 124.0 185.0 
91.0 195.0 185.0 161.0 124.0 
91.0 195.0 185.0 124.0 161.0 
91.0 195.0 124.0 185.0 161.0 
91.0 195.0 124.0 161.0 185.0 
91.0 185.0 195.0 161.0 124.0 
91.0 185.0 195.0 124.0 161.0 
91.0 185.0 161.0 195.0 124.0 
91.0 185.0 161.0 124.0 195.0 
91.0 185.0 124.0 161.0 195.0 
91.0 185.0 124.0 195.0 161.0 
91.0 124.0 195.0 185.0 161.0 
91.0 124.0 195.0 161.0 185.0 
91.0 124.0 185.0 195.0 161.0 
91.0 124.0 185.0 161.0 195.0 
91.0 124.0 161.0 185.0 195.0 
91.0 124.0 161.0 195.0 185.0 
